
Gurobi 9.0.1 (linux64) logging started Fri May  1 00:41:18 2020

Gurobi Optimizer version 9.0.1 build v9.0.1rc0 (linux64)
Optimize a model with 1072 rows, 842 columns and 4116 nonzeros
Model fingerprint: 0xb11d49f2
Variable types: 0 continuous, 842 integer (810 binary)
Coefficient statistics:
  Matrix range     [1e+00, 8e+00]
  Objective range  [2e+00, 1e+02]
  Bounds range     [1e+00, 1e+00]
  RHS range        [1e+00, 9e+00]

User MIP start produced solution with objective 571 (0.00s)
Loaded user MIP start with objective 571

Presolve removed 242 rows and 204 columns
Presolve time: 0.01s
Presolved: 830 rows, 638 columns, 3360 nonzeros
Variable types: 0 continuous, 638 integer (610 binary)

Root relaxation: objective 4.127500e+02, 877 iterations, 0.04 seconds

    Nodes    |    Current Node    |     Objective Bounds      |     Work
 Expl Unexpl |  Obj  Depth IntInf | Incumbent    BestBd   Gap | It/Node Time

     0     0  412.75000    0   27  571.00000  412.75000  27.7%     -    0s
     0     0  536.00000    0   57  571.00000  536.00000  6.13%     -    0s
     0     0  536.00000    0   57  571.00000  536.00000  6.13%     -    0s
     0     0  536.45000    0   68  571.00000  536.45000  6.05%     -    0s
     0     0  536.48214    0   66  571.00000  536.48214  6.05%     -    0s
     0     0  540.50000    0   77  571.00000  540.50000  5.34%     -    0s
     0     0  540.50000    0   69  571.00000  540.50000  5.34%     -    0s
     0     0  541.50000    0   87  571.00000  541.50000  5.17%     -    0s
     0     0  541.75000    0   71  571.00000  541.75000  5.12%     -    0s
     0     0  541.75000    0   90  571.00000  541.75000  5.12%     -    0s
     0     0  541.75000    0   77  571.00000  541.75000  5.12%     -    0s
     0     0  541.75000    0  106  571.00000  541.75000  5.12%     -    0s
     0     0  541.75000    0   98  571.00000  541.75000  5.12%     -    0s
     0     0  541.75000    0  101  571.00000  541.75000  5.12%     -    0s
     0     0  541.75000    0   67  571.00000  541.75000  5.12%     -    0s
     0     0  541.75000    0   60  571.00000  541.75000  5.12%     -    0s
     0     0  541.75000    0   67  571.00000  541.75000  5.12%     -    0s
     0     0  541.75000    0   62  571.00000  541.75000  5.12%     -    0s
     0     0  541.75000    0   59  571.00000  541.75000  5.12%     -    0s
     0     0  541.75000    0   87  571.00000  541.75000  5.12%     -    0s
     0     0  541.75000    0   85  571.00000  541.75000  5.12%     -    0s
     0     0  541.75000    0   63  571.00000  541.75000  5.12%     -    0s
     0     2  541.75000    0   44  571.00000  541.75000  5.12%     -    0s
H  417   132                     561.0000000  545.73305  2.72%   105    3s
   528   206  557.28546    9  285  561.00000  546.63175  2.56%   103    5s
   675   256  555.23742   27  171  561.00000  547.55452  2.40%   142   10s
  1053   298  549.48343   13  247  561.00000  548.83276  2.17%   139   15s
  1376   377  552.33023   20  268  561.00000  549.81387  1.99%   145   20s
  1711   466  551.38930   20  255  561.00000  550.64409  1.85%   147   25s
  2053   545  554.52096   38   69  561.00000  551.27180  1.73%   151   30s
  2439   655  558.60292   22  266  561.00000  551.94000  1.61%   147   35s
  2793   762  555.35316   33  167  561.00000  552.34886  1.54%   148   40s
  3076   809  553.68077   20  302  561.00000  552.66616  1.49%   150   45s
  3395   865  554.81860   17  248  561.00000  552.91606  1.44%   154   50s
  3647   913  557.93251   24  227  561.00000  553.29091  1.37%   156   55s
* 3812   893              30     560.0000000  553.46612  1.17%   156   56s
  3987   894  555.36588   17  268  560.00000  553.64697  1.13%   159   60s
  4343   910  557.66371   21  235  560.00000  553.93576  1.08%   161   65s
  4686   900  555.55839   39   54  560.00000  554.21517  1.03%   163   70s
  5058   891  557.71328   20  221  560.00000  554.49554  0.98%   164   75s
  5326   879  557.59405   23  217  560.00000  554.76116  0.94%   166   80s
  5654   852     cutoff   33       560.00000  555.02246  0.89%   168   85s
  6002   815     cutoff   18       560.00000  555.27226  0.84%   168   90s
  6431   743  556.52632   30   84  560.00000  555.59701  0.79%   167   95s
  6806   685  557.03052   24  175  560.00000  555.84456  0.74%   167  100s
  7135   590  556.91245   32  169  560.00000  556.23842  0.67%   167  105s
  7563   478     cutoff   20       560.00000  556.66667  0.60%   167  110s
  7968   340  557.94577   34  183  560.00000  557.17784  0.50%   166  115s
  8348   114  558.93230   26  201  560.00000  558.31552  0.30%   164  120s

Cutting planes:
  Learned: 6
  Gomory: 3
  Cover: 19
  Implied bound: 94
  Clique: 1
  MIR: 16
  Flow cover: 120
  Inf proof: 61
  Zero half: 24
  RLT: 123
  Relax-and-lift: 1

Explored 8465 nodes (1382431 simplex iterations) in 120.45 seconds
Thread count was 1 (of 40 available processors)

Solution count 3: 560 561 571 

Optimal solution found (tolerance 1.00e-04)
Best objective 5.600000000000e+02, best bound 5.600000000000e+02, gap 0.0000%

User-callback calls 38773, time in user-callback 0.03 sec
